c defined variables: 
p cnf 86 57
a 1 2 3 4 5 6 7 8 9 10 11 12 13 14 0
d 15 2 7 0
d 16 4 0
d 17 4 0
d 18 1 4 6 10 0
d 19 1 2 3 10 11 13 0
d 20 3 7 14 0
d 21 6 10 13 0
d 22 1 4 9 10 11 12 0
d 23 1 2 5 9 0
d 24 6 8 11 0
d 25 1 13 0
d 26 8 11 0
d 27 1 6 0
d 28 7 11 12 0
2 -10 15 -17 18 0
-7 -11 -15 -17 19 0
7 10 16 -18 -20 0
-1 10 -18 -19 -20 0
-3 -14 -15 20 -21 0
6 -10 -18 -19 21 0
7 -13 -15 -20 21 0
-1 -10 16 -19 -22 0
4 14 -17 -20 -22 0
-3 10 17 -20 -22 0
6 13 -18 21 -22 0
7 -11 18 -20 22 0
-1 -9 -15 17 -23 0
4 10 17 19 -23 0
-2 13 -19 20 -23 0
4 -6 17 21 -23 0
3 -9 -19 22 -23 0
2 -9 15 -16 23 0
-2 5 16 -18 23 0
-2 -7 -17 -20 23 0
-1 -2 16 -22 23 0
1 -3 -16 -19 -24 0
-7 11 17 20 -24 0
-10 -12 -15 -22 -24 0
5 -11 -17 -23 -24 0
-1 6 -19 -23 -24 0
1 -2 -17 19 24 0
10 -13 -17 -21 24 0
-4 6 -19 22 24 0
-1 -13 16 17 -25 0
-2 10 -17 -19 -25 0
-2 -6 -21 -23 -25 0
10 -11 -19 -20 25 0
1 -12 -21 -22 25 0
-4 -12 -17 -22 -26 0
-4 -10 17 -22 -26 0
-2 -11 -18 23 -26 0
3 -14 15 20 26 0
2 6 -23 -24 26 0
-1 -11 -22 24 26 0
-1 6 -16 18 -27 0
-1 -11 -19 21 -27 0
6 -11 -19 -23 -27 0
2 -8 -15 -24 27 0
-6 8 -18 -26 27 0
-4 11 -22 26 27 0
6 -12 -18 22 -28 0
-9 -10 21 22 -28 0
-2 -5 17 23 -28 0
-2 10 -18 23 -28 0
-5 8 -23 24 -28 0
-1 -9 -21 -22 28 0
1 -4 22 24 28 0
-6 -13 24 -25 28 0
-1 12 -22 25 28 0
-9 12 -23 -27 28 0
-1 -12 26 -27 28 0
